n_res = 4;
rc = [ 13, 11, 17, 17 ];
n_tasks = 30;
d = [ 1, 10, 4, 4, 3, 4, 9, 10, 2, 7, 1, 1, 2, 6, 10, 9, 7, 5, 1, 2, 6, 3, 2, 6, 8, 3, 3, 9, 8, 2 ];
rr = [| 13, 13, 13, 13, 13, 13, 13, 13, 13, 13, 13, 13, 13, 13, 13, 13, 13, 13, 13, 13, 13, 13, 13, 13, 13, 13, 13, 13, 13, 13
      | 11, 11, 11, 11, 11, 11, 11, 11, 11, 11, 11, 11, 11, 11, 11, 11, 11, 11, 11, 11, 11, 11, 11, 11, 11, 11, 11, 11, 11, 11
      | 17, 17, 17, 17, 17, 17, 17, 17, 17, 17, 17, 17, 17, 17, 17, 17, 17, 17, 17, 17, 17, 17, 17, 17, 17, 17, 17, 17, 17, 17
      | 17, 17, 17, 17, 17, 17, 17, 17, 17, 17, 17, 17, 17, 17, 17, 17, 17, 17, 17, 17, 17, 17, 17, 17, 17, 17, 17, 17, 17, 17|];
suc = [ { 4, 8 },
       { 5, 6, 11 },
       { 13 },
       { 7, 9, 10 },
       { 17, 24 },
       { 20 },
       { 12, 25, 28 },
       { 16, 18, 21 },
       { 23 },
       { 16 },
       { 22 },
       { 26 },
       { 14 },
       { 15, 19 },
       { 17, 26, 27 },
       { 30 },
       { 28 },
       { 28 },
       { 20 },
       { 23 },
       { 23, 26, 29 },
       { 24 },
       { 25 },
       { 29 },
       { 27 },
       { 30 },
       { 30 },
       {  },
       {  },
       {  } ];
